NAME : swiss42-R-5-3-a.1474.tour
COMMENT : Length = 1474
COMMENT : Found by LKH-3 [Keld Helsgaun] Tue Jul 30 13:14:22 2024
TYPE : TOUR
DIMENSION : 42
TOUR_SECTION
1
8
18
32
36
37
38
16
17
15
20
27
19
5
4
3
28
31
30
10
42
24
41
25
22
40
23
39
35
34
21
33
29
9
11
26
12
13
14
6
7
2
-1
EOF
